Minimize
  cst_0_phi_120_flop + cst_1_phi_224_flop + start_0_forkC_88_flop + cst_7_fork_1215_flop + forkC_8_cst_00_flop + forkC_8_cst_12_flop + forkC_8_cst_76_flop + forkC_8_phiC_058_flop + forkC_8_cst_4104_flop + forkC_8_phiC_2137_flop + fork_12_phi_n664_flop + fork_12_phi_n7147_flop + load_5_MC_feature197_flop + load_8_LSQ_hist188_flop + store_0_LSQ_hist189_flop + store_0_LSQ_hist190_flop + forkC_0_LSQ_hist186_flop + branch_0_sink_1202_flop + branch_1_ret_0184_flop + branchC_4_sink_3204_flop + branchC_6_phiC_5141_flop + branchC_6_sink_5206_flop + cst_4_phi_16108_flop + load_19_MC_feature198_flop + load_22_LSQ_hist191_flop + store_1_LSQ_hist192_flop + store_1_LSQ_hist193_flop + branch_2_sink_2203_flop + branchC_5_sink_4205_flop + branchC_7_sink_6207_flop + forkC_14_LSQ_hist187_flop + ret_0_end_0210_flop + LSQ_hist_load_830_flop + LSQ_hist_load_22114_flop + LSQ_hist_end_0208_flop + MC_feature_load_526_flop + MC_feature_load_19110_flop + MC_feature_end_0209_flop
Subject to
  timePath_cst_0_out1 <= 4
  timePath_phi_1_in3 <= 4
  8 cst_0_phi_120_flop - timePath_cst_0_out1 + timePath_phi_1_in3 >= 0
  timePath_cst_1_out1 <= 4
  timePath_phi_2_in3 <= 4
  8 cst_1_phi_224_flop - timePath_cst_1_out1 + timePath_phi_2_in3 >= 0
  timePath_start_0_out1 <= 4
  timePath_forkC_8_in1 <= 4
  8 start_0_forkC_88_flop - timePath_start_0_out1 + timePath_forkC_8_in1 >= 0
  timePath_cst_7_out1 <= 4
  timePath_fork_12_in1 <= 4
  8 cst_7_fork_1215_flop - timePath_cst_7_out1 + timePath_fork_12_in1 >= 0
  timePath_forkC_8_out1 <= 4
  timePath_cst_0_in1 <= 4
  8 forkC_8_cst_00_flop + timePath_cst_0_in1 - timePath_forkC_8_out1 >= 0
  timePath_forkC_8_out2 <= 4
  timePath_cst_1_in1 <= 4
  8 forkC_8_cst_12_flop + timePath_cst_1_in1 - timePath_forkC_8_out2 >= 0
  timePath_forkC_8_out6 <= 4
  timePath_cst_7_in1 <= 4
  8 forkC_8_cst_76_flop + timePath_cst_7_in1 - timePath_forkC_8_out6 >= 0
  timePath_forkC_8_out3 <= 4
  timePath_phiC_0_in3 <= 4
  8 forkC_8_phiC_058_flop - timePath_forkC_8_out3 + timePath_phiC_0_in3 >= 0
  timePath_forkC_8_out4 <= 4
  timePath_cst_4_in1 <= 4
  8 forkC_8_cst_4104_flop - timePath_forkC_8_out4 + timePath_cst_4_in1 >= 0
  timePath_forkC_8_out5 <= 4
  timePath_phiC_2_in3 <= 4
  8 forkC_8_phiC_2137_flop - timePath_forkC_8_out5 + timePath_phiC_2_in3 >= 0
  timePath_fork_12_out1 <= 4
  timePath_phi_n6_in1 <= 4
  8 fork_12_phi_n664_flop - timePath_fork_12_out1 + timePath_phi_n6_in1 >= 0
  timePath_fork_12_out2 <= 4
  timePath_phi_n7_in1 <= 4
  8 fork_12_phi_n7147_flop - timePath_fork_12_out2 + timePath_phi_n7_in1 >= 0
  timePath_phi_1_out1 <= 4
  timePath_fork_2_in1 <= 4
  -timePath_phi_1_out1 + timePath_fork_2_in1 >= -8
  timePath_phi_2_out1 <= 4
  timePath_add_9_in1 <= 4
  -timePath_phi_2_out1 + timePath_add_9_in1 >= -8
  timePath_load_5_out1 <= 4
  timePath_fork_15_in1 <= 4
  -timePath_load_5_out1 + timePath_fork_15_in1 >= -0
  timePath_load_8_out1 <= 4
  timePath_add_9_in2 <= 4
  -timePath_load_8_out1 + timePath_add_9_in2 >= -0
  timePath_add_9_out1 <= 4
  timePath_branch_1_in1 <= 4
  -timePath_add_9_out1 + timePath_branch_1_in1 >= -0
  timePath_cst_2_out1 <= 4
  timePath_add_12_in2 <= 4
  -timePath_cst_2_out1 + timePath_add_12_in2 >= -0
  timePath_add_12_out1 <= 4
  timePath_fork_3_in1 <= 4
  -timePath_add_12_out1 + timePath_fork_3_in1 >= -0
  timePath_cst_3_out1 <= 4
  timePath_icmp_13_in2 <= 4
  -timePath_cst_3_out1 + timePath_icmp_13_in2 >= -0
  timePath_icmp_13_out1 <= 4
  timePath_fork_4_in1 <= 4
  -timePath_icmp_13_out1 + timePath_fork_4_in1 >= -0
  timePath_forkC_0_out1 <= 4
  timePath_buffer_bx_op_0_in1 <= 4
  -timePath_forkC_0_out1 + timePath_buffer_bx_op_0_in1 >= -0
  timePath_buffer_bx_op_0_out1 <= 4
  timePath_branchC_6_in1 <= 4
  -timePath_buffer_bx_op_0_out1 + timePath_branchC_6_in1 >= -0
  timePath_phiC_0_out1 <= 4
  timePath_forkC_9_in1 <= 4
  -timePath_phiC_0_out1 + timePath_forkC_9_in1 >= -8
  timePath_branch_0_out2 <= 4
  timePath_phi_1_in2 <= 4
  timePath_phi_1_in2 - timePath_branch_0_out2 >= -0
  timePath_branch_0_out1 <= 4
  timePath_sink_1_in1 <= 4
  8 branch_0_sink_1202_flop - timePath_branch_0_out1 + timePath_sink_1_in1 >= 0
  timePath_phi_n6_out1 <= 4
  timePath_fork_11_in1 <= 4
  -timePath_phi_n6_out1 + timePath_fork_11_in1 >= -0
  timePath_branch_1_out2 <= 4
  timePath_phi_2_in2 <= 4
  timePath_phi_2_in2 - timePath_branch_1_out2 >= -0
  timePath_branch_1_out1 <= 4
  timePath_ret_0_in1 <= 4
  8 branch_1_ret_0184_flop - timePath_branch_1_out1 + timePath_ret_0_in1 >= 0
  timePath_branchC_4_out2 <= 4
  timePath_phiC_0_in2 <= 4
  timePath_phiC_0_in2 - timePath_branchC_4_out2 >= -0
  timePath_branchC_4_out1 <= 4
  timePath_sink_3_in1 <= 4
  8 branchC_4_sink_3204_flop - timePath_branchC_4_out1 + timePath_sink_3_in1 >= 0
  timePath_branchC_6_out2 <= 4
  timePath_phiC_5_in3 <= 4
  8 branchC_6_phiC_5141_flop - timePath_branchC_6_out2 + timePath_phiC_5_in3 >= 0
  timePath_branchC_6_out1 <= 4
  timePath_sink_5_in1 <= 4
  8 branchC_6_sink_5206_flop - timePath_branchC_6_out1 + timePath_sink_5_in1 >= 0
  timePath_fork_2_out3 <= 4
  timePath_load_5_in2 <= 4
  timePath_load_5_in2 - timePath_fork_2_out3 >= -0
  timePath_fork_2_out1 <= 4
  timePath_store_0_in1 <= 4
  timePath_store_0_in1 - timePath_fork_2_out1 >= -0
  timePath_fork_2_out2 <= 4
  timePath_add_12_in1 <= 4
  timePath_add_12_in1 - timePath_fork_2_out2 >= -0
  timePath_fork_3_out1 <= 4
  timePath_icmp_13_in1 <= 4
  timePath_icmp_13_in1 - timePath_fork_3_out1 >= -0
  timePath_fork_3_out2 <= 4
  timePath_branch_0_in1 <= 4
  timePath_branch_0_in1 - timePath_fork_3_out2 >= -0
  timePath_fork_4_out1 <= 4
  timePath_branch_0_in2 <= 4
  timePath_branch_0_in2 - timePath_fork_4_out1 >= -0
  timePath_fork_4_out2 <= 4
  timePath_phi_n6_in2 <= 4
  timePath_phi_n6_in2 - timePath_fork_4_out2 >= -0
  timePath_fork_4_out3 <= 4
  timePath_branch_1_in2 <= 4
  timePath_branch_1_in2 - timePath_fork_4_out3 >= -0
  timePath_fork_4_out4 <= 4
  timePath_branchC_4_in2 <= 4
  timePath_branchC_4_in2 - timePath_fork_4_out4 >= -0
  timePath_fork_4_out5 <= 4
  timePath_branchC_6_in2 <= 4
  timePath_branchC_6_in2 - timePath_fork_4_out5 >= -0
  timePath_forkC_9_out1 <= 4
  timePath_cst_2_in1 <= 4
  timePath_cst_2_in1 - timePath_forkC_9_out1 >= -0
  timePath_forkC_9_out3 <= 4
  timePath_cst_3_in1 <= 4
  timePath_cst_3_in1 - timePath_forkC_9_out3 >= -0
  timePath_forkC_9_out4 <= 4
  timePath_forkC_0_in1 <= 4
  timePath_forkC_0_in1 - timePath_forkC_9_out4 >= -0
  timePath_forkC_9_out2 <= 4
  timePath_branchC_4_in1 <= 4
  timePath_branchC_4_in1 - timePath_forkC_9_out2 >= -0
  timePath_fork_11_out1 <= 4
  timePath_phi_1_in1 <= 4
  timePath_phi_1_in1 - timePath_fork_11_out1 >= -0
  timePath_fork_11_out2 <= 4
  timePath_phi_2_in1 <= 4
  timePath_phi_2_in1 - timePath_fork_11_out2 >= -0
  timePath_fork_11_out3 <= 4
  timePath_phiC_0_in1 <= 4
  timePath_phiC_0_in1 - timePath_fork_11_out3 >= -0
  timePath_fork_15_out1 <= 4
  timePath_load_8_in2 <= 4
  timePath_load_8_in2 - timePath_fork_15_out1 >= -0
  timePath_fork_15_out2 <= 4
  timePath_store_0_in2 <= 4
  timePath_store_0_in2 - timePath_fork_15_out2 >= -0
  timePath_cst_4_out1 <= 4
  timePath_phi_16_in3 <= 4
  8 cst_4_phi_16108_flop - timePath_cst_4_out1 + timePath_phi_16_in3 >= 0
  timePath_phi_16_out1 <= 4
  timePath_fork_5_in1 <= 4
  -timePath_phi_16_out1 + timePath_fork_5_in1 >= -8
  timePath_load_19_out1 <= 4
  timePath_fork_16_in1 <= 4
  -timePath_load_19_out1 + timePath_fork_16_in1 >= -0
  timePath_load_22_out1 <= 4
  timePath_add_23_in1 <= 4
  -timePath_load_22_out1 + timePath_add_23_in1 >= -0
  timePath_add_23_out1 <= 4
  timePath_store_1_in1 <= 4
  -timePath_add_23_out1 + timePath_store_1_in1 >= -0
  timePath_cst_5_out1 <= 4
  timePath_add_26_in2 <= 4
  -timePath_cst_5_out1 + timePath_add_26_in2 >= -0
  timePath_add_26_out1 <= 4
  timePath_fork_6_in1 <= 4
  -timePath_add_26_out1 + timePath_fork_6_in1 >= -0
  timePath_cst_6_out1 <= 4
  timePath_icmp_27_in2 <= 4
  -timePath_cst_6_out1 + timePath_icmp_27_in2 >= -0
  timePath_icmp_27_out1 <= 4
  timePath_fork_7_in1 <= 4
  -timePath_icmp_27_out1 + timePath_fork_7_in1 >= -0
  timePath_phiC_2_out1 <= 4
  timePath_forkC_10_in1 <= 4
  -timePath_phiC_2_out1 + timePath_forkC_10_in1 >= -8
  timePath_phiC_5_out1 <= 4
  timePath_forkC_14_in1 <= 4
  -timePath_phiC_5_out1 + timePath_forkC_14_in1 >= -8
  timePath_branch_2_out2 <= 4
  timePath_phi_16_in2 <= 4
  timePath_phi_16_in2 - timePath_branch_2_out2 >= -0
  timePath_branch_2_out1 <= 4
  timePath_sink_2_in1 <= 4
  8 branch_2_sink_2203_flop - timePath_branch_2_out1 + timePath_sink_2_in1 >= 0
  timePath_phi_n7_out1 <= 4
  timePath_fork_13_in1 <= 4
  -timePath_phi_n7_out1 + timePath_fork_13_in1 >= -0
  timePath_branchC_5_out2 <= 4
  timePath_phiC_2_in2 <= 4
  timePath_phiC_2_in2 - timePath_branchC_5_out2 >= -0
  timePath_branchC_5_out1 <= 4
  timePath_sink_4_in1 <= 4
  8 branchC_5_sink_4205_flop - timePath_branchC_5_out1 + timePath_sink_4_in1 >= 0
  timePath_branchC_7_out2 <= 4
  timePath_phiC_5_in2 <= 4
  timePath_phiC_5_in2 - timePath_branchC_7_out2 >= -0
  timePath_branchC_7_out1 <= 4
  timePath_sink_6_in1 <= 4
  8 branchC_7_sink_6207_flop - timePath_branchC_7_out1 + timePath_sink_6_in1 >= 0
  timePath_fork_5_out3 <= 4
  timePath_load_19_in2 <= 4
  timePath_load_19_in2 - timePath_fork_5_out3 >= -0
  timePath_fork_5_out1 <= 4
  timePath_add_23_in2 <= 4
  timePath_add_23_in2 - timePath_fork_5_out1 >= -0
  timePath_fork_5_out2 <= 4
  timePath_add_26_in1 <= 4
  timePath_add_26_in1 - timePath_fork_5_out2 >= -0
  timePath_fork_6_out1 <= 4
  timePath_icmp_27_in1 <= 4
  timePath_icmp_27_in1 - timePath_fork_6_out1 >= -0
  timePath_fork_6_out2 <= 4
  timePath_branch_2_in1 <= 4
  timePath_branch_2_in1 - timePath_fork_6_out2 >= -0
  timePath_fork_7_out1 <= 4
  timePath_branch_2_in2 <= 4
  timePath_branch_2_in2 - timePath_fork_7_out1 >= -0
  timePath_fork_7_out2 <= 4
  timePath_phi_n7_in2 <= 4
  timePath_phi_n7_in2 - timePath_fork_7_out2 >= -0
  timePath_fork_7_out3 <= 4
  timePath_branchC_5_in2 <= 4
  timePath_branchC_5_in2 - timePath_fork_7_out3 >= -0
  timePath_fork_7_out4 <= 4
  timePath_branchC_7_in2 <= 4
  timePath_branchC_7_in2 - timePath_fork_7_out4 >= -0
  timePath_forkC_10_out1 <= 4
  timePath_cst_5_in1 <= 4
  timePath_cst_5_in1 - timePath_forkC_10_out1 >= -0
  timePath_forkC_10_out3 <= 4
  timePath_cst_6_in1 <= 4
  timePath_cst_6_in1 - timePath_forkC_10_out3 >= -0
  timePath_forkC_10_out2 <= 4
  timePath_branchC_5_in1 <= 4
  timePath_branchC_5_in1 - timePath_forkC_10_out2 >= -0
  timePath_fork_13_out1 <= 4
  timePath_phi_16_in1 <= 4
  timePath_phi_16_in1 - timePath_fork_13_out1 >= -0
  timePath_fork_13_out2 <= 4
  timePath_phiC_2_in1 <= 4
  timePath_phiC_2_in1 - timePath_fork_13_out2 >= -0
  timePath_fork_13_out3 <= 4
  timePath_phiC_5_in1 <= 4
  timePath_phiC_5_in1 - timePath_fork_13_out3 >= -0
  timePath_forkC_14_out2 <= 4
  timePath_branchC_7_in1 <= 4
  timePath_branchC_7_in1 - timePath_forkC_14_out2 >= -8
  timePath_fork_16_out1 <= 4
  timePath_load_22_in2 <= 4
  timePath_load_22_in2 - timePath_fork_16_out1 >= -0
  timePath_fork_16_out2 <= 4
  timePath_store_1_in2 <= 4
  timePath_store_1_in2 - timePath_fork_16_out2 >= -0
  timePath_ret_0_out1 <= 4
  timePath_end_0_in3 <= 4
  8 ret_0_end_0210_flop - timePath_ret_0_out1 + timePath_end_0_in3 >= 0
  -timePath_cst_0_in1 + timePath_cst_0_out1 >= 0
  -timePath_cst_1_in1 + timePath_cst_1_out1 >= 0
  -timePath_cst_7_in1 + timePath_cst_7_out1 >= 0
  -timePath_forkC_8_in1 + timePath_forkC_8_out1 >= 0
  -timePath_forkC_8_in1 + timePath_forkC_8_out2 >= 0
  -timePath_forkC_8_in1 + timePath_forkC_8_out3 >= 0
  -timePath_forkC_8_in1 + timePath_forkC_8_out4 >= 0
  -timePath_forkC_8_in1 + timePath_forkC_8_out5 >= 0
  -timePath_forkC_8_in1 + timePath_forkC_8_out6 >= 0
  -timePath_fork_12_in1 + timePath_fork_12_out1 >= 0
  -timePath_fork_12_in1 + timePath_fork_12_out2 >= 0
  -timePath_phi_1_in1 + timePath_phi_1_out1 >= 0.366
  -timePath_phi_1_in2 + timePath_phi_1_out1 >= 0.366
  -timePath_phi_1_in3 + timePath_phi_1_out1 >= 0.366
  -timePath_phi_2_in1 + timePath_phi_2_out1 >= 0.366
  -timePath_phi_2_in2 + timePath_phi_2_out1 >= 0.366
  -timePath_phi_2_in3 + timePath_phi_2_out1 >= 0.366
  timePath_load_5_out1 = 0
  timePath_load_5_out2 = 0
  timePath_load_5_in1 <= 4
  timePath_load_5_in2 <= 4
  timePath_load_8_out1 = 0
  timePath_load_8_out2 = 0
  timePath_load_8_in1 <= 4
  timePath_load_8_in2 <= 4
  -timePath_add_9_in1 + timePath_add_9_out1 >= 1.693
  -timePath_add_9_in2 + timePath_add_9_out1 >= 1.693
  -timePath_store_0_in1 + timePath_store_0_out1 >= 0
  -timePath_store_0_in2 + timePath_store_0_out1 >= 0
  -timePath_store_0_in1 + timePath_store_0_out2 >= 0
  -timePath_store_0_in2 + timePath_store_0_out2 >= 0
  -timePath_cst_2_in1 + timePath_cst_2_out1 >= 0
  -timePath_add_12_in1 + timePath_add_12_out1 >= 1.693
  -timePath_add_12_in2 + timePath_add_12_out1 >= 1.693
  -timePath_cst_3_in1 + timePath_cst_3_out1 >= 0
  -timePath_icmp_13_in1 + timePath_icmp_13_out1 >= 1.53
  -timePath_icmp_13_in2 + timePath_icmp_13_out1 >= 1.53
  -timePath_forkC_0_in1 + timePath_forkC_0_out1 >= 0
  -timePath_forkC_0_in1 + timePath_forkC_0_out2 >= 0
  timePath_buffer_bx_op_0_out1 = 0
  timePath_buffer_bx_op_0_in1 <= 4
  -timePath_phiC_0_in1 + timePath_phiC_0_out1 >= 0.166
  -timePath_phiC_0_in2 + timePath_phiC_0_out1 >= 0.166
  -timePath_phiC_0_in3 + timePath_phiC_0_out1 >= 0.166
  -timePath_branch_0_in1 + timePath_branch_0_out1 >= 0
  -timePath_branch_0_in2 + timePath_branch_0_out1 >= 0
  -timePath_branch_0_in1 + timePath_branch_0_out2 >= 0
  -timePath_branch_0_in2 + timePath_branch_0_out2 >= 0
  -timePath_phi_n6_in1 + timePath_phi_n6_out1 >= 0.366
  -timePath_phi_n6_in2 + timePath_phi_n6_out1 >= 0.366
  -timePath_branch_1_in1 + timePath_branch_1_out1 >= 0
  -timePath_branch_1_in2 + timePath_branch_1_out1 >= 0
  -timePath_branch_1_in1 + timePath_branch_1_out2 >= 0
  -timePath_branch_1_in2 + timePath_branch_1_out2 >= 0
  -timePath_branchC_4_in1 + timePath_branchC_4_out1 >= 0
  -timePath_branchC_4_in2 + timePath_branchC_4_out1 >= 0
  -timePath_branchC_4_in1 + timePath_branchC_4_out2 >= 0
  -timePath_branchC_4_in2 + timePath_branchC_4_out2 >= 0
  -timePath_branchC_6_in1 + timePath_branchC_6_out1 >= 0
  -timePath_branchC_6_in2 + timePath_branchC_6_out1 >= 0
  -timePath_branchC_6_in1 + timePath_branchC_6_out2 >= 0
  -timePath_branchC_6_in2 + timePath_branchC_6_out2 >= 0
  -timePath_fork_2_in1 + timePath_fork_2_out1 >= 0
  -timePath_fork_2_in1 + timePath_fork_2_out2 >= 0
  -timePath_fork_2_in1 + timePath_fork_2_out3 >= 0
  -timePath_fork_3_in1 + timePath_fork_3_out1 >= 0
  -timePath_fork_3_in1 + timePath_fork_3_out2 >= 0
  -timePath_fork_4_in1 + timePath_fork_4_out1 >= 0
  -timePath_fork_4_in1 + timePath_fork_4_out2 >= 0
  -timePath_fork_4_in1 + timePath_fork_4_out3 >= 0
  -timePath_fork_4_in1 + timePath_fork_4_out4 >= 0
  -timePath_fork_4_in1 + timePath_fork_4_out5 >= 0
  -timePath_forkC_9_in1 + timePath_forkC_9_out1 >= 0
  -timePath_forkC_9_in1 + timePath_forkC_9_out2 >= 0
  -timePath_forkC_9_in1 + timePath_forkC_9_out3 >= 0
  -timePath_forkC_9_in1 + timePath_forkC_9_out4 >= 0
  -timePath_fork_11_in1 + timePath_fork_11_out1 >= 0
  -timePath_fork_11_in1 + timePath_fork_11_out2 >= 0
  -timePath_fork_11_in1 + timePath_fork_11_out3 >= 0
  -timePath_fork_15_in1 + timePath_fork_15_out1 >= 0
  -timePath_fork_15_in1 + timePath_fork_15_out2 >= 0
  -timePath_cst_4_in1 + timePath_cst_4_out1 >= 0
  -timePath_phi_16_in1 + timePath_phi_16_out1 >= 0.366
  -timePath_phi_16_in2 + timePath_phi_16_out1 >= 0.366
  -timePath_phi_16_in3 + timePath_phi_16_out1 >= 0.366
  timePath_load_19_out1 = 0
  timePath_load_19_out2 = 0
  timePath_load_19_in1 <= 4
  timePath_load_19_in2 <= 4
  timePath_load_22_out1 = 0
  timePath_load_22_out2 = 0
  timePath_load_22_in1 <= 4
  timePath_load_22_in2 <= 4
  -timePath_add_23_in1 + timePath_add_23_out1 >= 1.693
  -timePath_add_23_in2 + timePath_add_23_out1 >= 1.693
  -timePath_store_1_in1 + timePath_store_1_out1 >= 0
  -timePath_store_1_in2 + timePath_store_1_out1 >= 0
  -timePath_store_1_in1 + timePath_store_1_out2 >= 0
  -timePath_store_1_in2 + timePath_store_1_out2 >= 0
  -timePath_cst_5_in1 + timePath_cst_5_out1 >= 0
  -timePath_add_26_in1 + timePath_add_26_out1 >= 1.693
  -timePath_add_26_in2 + timePath_add_26_out1 >= 1.693
  -timePath_cst_6_in1 + timePath_cst_6_out1 >= 0
  -timePath_icmp_27_in1 + timePath_icmp_27_out1 >= 1.53
  -timePath_icmp_27_in2 + timePath_icmp_27_out1 >= 1.53
  -timePath_phiC_2_in1 + timePath_phiC_2_out1 >= 0.166
  -timePath_phiC_2_in2 + timePath_phiC_2_out1 >= 0.166
  -timePath_phiC_2_in3 + timePath_phiC_2_out1 >= 0.166
  -timePath_phiC_5_in1 + timePath_phiC_5_out1 >= 0.166
  -timePath_phiC_5_in2 + timePath_phiC_5_out1 >= 0.166
  -timePath_phiC_5_in3 + timePath_phiC_5_out1 >= 0.166
  -timePath_branch_2_in1 + timePath_branch_2_out1 >= 0
  -timePath_branch_2_in2 + timePath_branch_2_out1 >= 0
  -timePath_branch_2_in1 + timePath_branch_2_out2 >= 0
  -timePath_branch_2_in2 + timePath_branch_2_out2 >= 0
  -timePath_phi_n7_in1 + timePath_phi_n7_out1 >= 0.366
  -timePath_phi_n7_in2 + timePath_phi_n7_out1 >= 0.366
  -timePath_branchC_5_in1 + timePath_branchC_5_out1 >= 0
  -timePath_branchC_5_in2 + timePath_branchC_5_out1 >= 0
  -timePath_branchC_5_in1 + timePath_branchC_5_out2 >= 0
  -timePath_branchC_5_in2 + timePath_branchC_5_out2 >= 0
  -timePath_branchC_7_in1 + timePath_branchC_7_out1 >= 0
  -timePath_branchC_7_in2 + timePath_branchC_7_out1 >= 0
  -timePath_branchC_7_in1 + timePath_branchC_7_out2 >= 0
  -timePath_branchC_7_in2 + timePath_branchC_7_out2 >= 0
  -timePath_fork_5_in1 + timePath_fork_5_out1 >= 0
  -timePath_fork_5_in1 + timePath_fork_5_out2 >= 0
  -timePath_fork_5_in1 + timePath_fork_5_out3 >= 0
  -timePath_fork_6_in1 + timePath_fork_6_out1 >= 0
  -timePath_fork_6_in1 + timePath_fork_6_out2 >= 0
  -timePath_fork_7_in1 + timePath_fork_7_out1 >= 0
  -timePath_fork_7_in1 + timePath_fork_7_out2 >= 0
  -timePath_fork_7_in1 + timePath_fork_7_out3 >= 0
  -timePath_fork_7_in1 + timePath_fork_7_out4 >= 0
  -timePath_forkC_10_in1 + timePath_forkC_10_out1 >= 0
  -timePath_forkC_10_in1 + timePath_forkC_10_out2 >= 0
  -timePath_forkC_10_in1 + timePath_forkC_10_out3 >= 0
  -timePath_fork_13_in1 + timePath_fork_13_out1 >= 0
  -timePath_fork_13_in1 + timePath_fork_13_out2 >= 0
  -timePath_fork_13_in1 + timePath_fork_13_out3 >= 0
  -timePath_forkC_14_in1 + timePath_forkC_14_out1 >= 0
  -timePath_forkC_14_in1 + timePath_forkC_14_out2 >= 0
  -timePath_fork_16_in1 + timePath_fork_16_out1 >= 0
  -timePath_fork_16_in1 + timePath_fork_16_out2 >= 0
  -timePath_ret_0_in1 + timePath_ret_0_out1 >= 0
  -timePath_LSQ_hist_in1 + timePath_LSQ_hist_out1 >= 0
  -timePath_LSQ_hist_in2 + timePath_LSQ_hist_out1 >= 0
  -timePath_LSQ_hist_in3 + timePath_LSQ_hist_out1 >= 0
  -timePath_LSQ_hist_in4 + timePath_LSQ_hist_out1 >= 0
  -timePath_LSQ_hist_in5 + timePath_LSQ_hist_out1 >= 0
  -timePath_LSQ_hist_in6 + timePath_LSQ_hist_out1 >= 0
  -timePath_LSQ_hist_in7 + timePath_LSQ_hist_out1 >= 0
  -timePath_LSQ_hist_in8 + timePath_LSQ_hist_out1 >= 0
  -timePath_LSQ_hist_in1 + timePath_LSQ_hist_out2 >= 0
  -timePath_LSQ_hist_in2 + timePath_LSQ_hist_out2 >= 0
  -timePath_LSQ_hist_in3 + timePath_LSQ_hist_out2 >= 0
  -timePath_LSQ_hist_in4 + timePath_LSQ_hist_out2 >= 0
  -timePath_LSQ_hist_in5 + timePath_LSQ_hist_out2 >= 0
  -timePath_LSQ_hist_in6 + timePath_LSQ_hist_out2 >= 0
  -timePath_LSQ_hist_in7 + timePath_LSQ_hist_out2 >= 0
  -timePath_LSQ_hist_in8 + timePath_LSQ_hist_out2 >= 0
  -timePath_LSQ_hist_in1 + timePath_LSQ_hist_out3 >= 0
  -timePath_LSQ_hist_in2 + timePath_LSQ_hist_out3 >= 0
  -timePath_LSQ_hist_in3 + timePath_LSQ_hist_out3 >= 0
  -timePath_LSQ_hist_in4 + timePath_LSQ_hist_out3 >= 0
  -timePath_LSQ_hist_in5 + timePath_LSQ_hist_out3 >= 0
  -timePath_LSQ_hist_in6 + timePath_LSQ_hist_out3 >= 0
  -timePath_LSQ_hist_in7 + timePath_LSQ_hist_out3 >= 0
  -timePath_LSQ_hist_in8 + timePath_LSQ_hist_out3 >= 0
  -timePath_MC_feature_in1 + timePath_MC_feature_out1 >= 0
  -timePath_MC_feature_in2 + timePath_MC_feature_out1 >= 0
  -timePath_MC_feature_in1 + timePath_MC_feature_out2 >= 0
  -timePath_MC_feature_in2 + timePath_MC_feature_out2 >= 0
  -timePath_MC_feature_in1 + timePath_MC_feature_out3 >= 0
  -timePath_MC_feature_in2 + timePath_MC_feature_out3 >= 0
  64 cst_0_phi_120_flop - timeElastic_cst_0_out1 + timeElastic_phi_1_in3 >= 0
  64 cst_1_phi_224_flop - timeElastic_cst_1_out1 + timeElastic_phi_2_in3 >= 0
  64 start_0_forkC_88_flop - timeElastic_start_0_out1 + timeElastic_forkC_8_in1 >= 0
  64 cst_7_fork_1215_flop - timeElastic_cst_7_out1 + timeElastic_fork_12_in1 >= 0
  64 forkC_8_cst_00_flop + timeElastic_cst_0_in1 - timeElastic_forkC_8_out1 >= 0
  64 forkC_8_cst_12_flop + timeElastic_cst_1_in1 - timeElastic_forkC_8_out2 >= 0
  64 forkC_8_cst_76_flop + timeElastic_cst_7_in1 - timeElastic_forkC_8_out6 >= 0
  64 forkC_8_phiC_058_flop - timeElastic_forkC_8_out3 + timeElastic_phiC_0_in3 >= 0
  64 forkC_8_cst_4104_flop - timeElastic_forkC_8_out4 + timeElastic_cst_4_in1 >= 0
  64 forkC_8_phiC_2137_flop - timeElastic_forkC_8_out5 + timeElastic_phiC_2_in3 >= 0
  64 fork_12_phi_n664_flop - timeElastic_fork_12_out1 + timeElastic_phi_n6_in1 >= 0
  64 fork_12_phi_n7147_flop - timeElastic_fork_12_out2 + timeElastic_phi_n7_in1 >= 0
  -timeElastic_phi_1_out1 + timeElastic_fork_2_in1 >= -64
  -timeElastic_phi_2_out1 + timeElastic_add_9_in1 >= -64
  -timeElastic_load_5_out1 + timeElastic_fork_15_in1 >= -0
  -timeElastic_load_8_out1 + timeElastic_add_9_in2 >= -0
  -timeElastic_add_9_out1 + timeElastic_branch_1_in1 >= -0
  -timeElastic_cst_2_out1 + timeElastic_add_12_in2 >= -0
  -timeElastic_add_12_out1 + timeElastic_fork_3_in1 >= -0
  -timeElastic_cst_3_out1 + timeElastic_icmp_13_in2 >= -0
  -timeElastic_icmp_13_out1 + timeElastic_fork_4_in1 >= -0
  -timeElastic_forkC_0_out1 + timeElastic_buffer_bx_op_0_in1 >= -0
  -timeElastic_buffer_bx_op_0_out1 + timeElastic_branchC_6_in1 >= -0
  -timeElastic_phiC_0_out1 + timeElastic_forkC_9_in1 >= -64
  timeElastic_phi_1_in2 - timeElastic_branch_0_out2 >= -0
  64 branch_0_sink_1202_flop - timeElastic_branch_0_out1 + timeElastic_sink_1_in1 >= 0
  -timeElastic_phi_n6_out1 + timeElastic_fork_11_in1 >= -0
  timeElastic_phi_2_in2 - timeElastic_branch_1_out2 >= -0
  64 branch_1_ret_0184_flop - timeElastic_branch_1_out1 + timeElastic_ret_0_in1 >= 0
  timeElastic_phiC_0_in2 - timeElastic_branchC_4_out2 >= -0
  64 branchC_4_sink_3204_flop - timeElastic_branchC_4_out1 + timeElastic_sink_3_in1 >= 0
  64 branchC_6_phiC_5141_flop - timeElastic_branchC_6_out2 + timeElastic_phiC_5_in3 >= 0
  64 branchC_6_sink_5206_flop - timeElastic_branchC_6_out1 + timeElastic_sink_5_in1 >= 0
  timeElastic_load_5_in2 - timeElastic_fork_2_out3 >= -0
  timeElastic_store_0_in1 - timeElastic_fork_2_out1 >= -0
  timeElastic_add_12_in1 - timeElastic_fork_2_out2 >= -0
  timeElastic_icmp_13_in1 - timeElastic_fork_3_out1 >= -0
  timeElastic_branch_0_in1 - timeElastic_fork_3_out2 >= -0
  timeElastic_branch_0_in2 - timeElastic_fork_4_out1 >= -0
  timeElastic_phi_n6_in2 - timeElastic_fork_4_out2 >= -0
  timeElastic_branch_1_in2 - timeElastic_fork_4_out3 >= -0
  timeElastic_branchC_4_in2 - timeElastic_fork_4_out4 >= -0
  timeElastic_branchC_6_in2 - timeElastic_fork_4_out5 >= -0
  timeElastic_cst_2_in1 - timeElastic_forkC_9_out1 >= -0
  timeElastic_cst_3_in1 - timeElastic_forkC_9_out3 >= -0
  timeElastic_forkC_0_in1 - timeElastic_forkC_9_out4 >= -0
  timeElastic_branchC_4_in1 - timeElastic_forkC_9_out2 >= -0
  timeElastic_phi_1_in1 - timeElastic_fork_11_out1 >= -0
  timeElastic_phi_2_in1 - timeElastic_fork_11_out2 >= -0
  timeElastic_phiC_0_in1 - timeElastic_fork_11_out3 >= -0
  timeElastic_load_8_in2 - timeElastic_fork_15_out1 >= -0
  timeElastic_store_0_in2 - timeElastic_fork_15_out2 >= -0
  64 cst_4_phi_16108_flop - timeElastic_cst_4_out1 + timeElastic_phi_16_in3 >= 0
  -timeElastic_phi_16_out1 + timeElastic_fork_5_in1 >= -64
  -timeElastic_load_19_out1 + timeElastic_fork_16_in1 >= -0
  -timeElastic_load_22_out1 + timeElastic_add_23_in1 >= -0
  -timeElastic_add_23_out1 + timeElastic_store_1_in1 >= -0
  -timeElastic_cst_5_out1 + timeElastic_add_26_in2 >= -0
  -timeElastic_add_26_out1 + timeElastic_fork_6_in1 >= -0
  -timeElastic_cst_6_out1 + timeElastic_icmp_27_in2 >= -0
  -timeElastic_icmp_27_out1 + timeElastic_fork_7_in1 >= -0
  -timeElastic_phiC_2_out1 + timeElastic_forkC_10_in1 >= -64
  -timeElastic_phiC_5_out1 + timeElastic_forkC_14_in1 >= -64
  timeElastic_phi_16_in2 - timeElastic_branch_2_out2 >= -0
  64 branch_2_sink_2203_flop - timeElastic_branch_2_out1 + timeElastic_sink_2_in1 >= 0
  -timeElastic_phi_n7_out1 + timeElastic_fork_13_in1 >= -0
  timeElastic_phiC_2_in2 - timeElastic_branchC_5_out2 >= -0
  64 branchC_5_sink_4205_flop - timeElastic_branchC_5_out1 + timeElastic_sink_4_in1 >= 0
  timeElastic_phiC_5_in2 - timeElastic_branchC_7_out2 >= -0
  64 branchC_7_sink_6207_flop - timeElastic_branchC_7_out1 + timeElastic_sink_6_in1 >= 0
  timeElastic_load_19_in2 - timeElastic_fork_5_out3 >= -0
  timeElastic_add_23_in2 - timeElastic_fork_5_out1 >= -0
  timeElastic_add_26_in1 - timeElastic_fork_5_out2 >= -0
  timeElastic_icmp_27_in1 - timeElastic_fork_6_out1 >= -0
  timeElastic_branch_2_in1 - timeElastic_fork_6_out2 >= -0
  timeElastic_branch_2_in2 - timeElastic_fork_7_out1 >= -0
  timeElastic_phi_n7_in2 - timeElastic_fork_7_out2 >= -0
  timeElastic_branchC_5_in2 - timeElastic_fork_7_out3 >= -0
  timeElastic_branchC_7_in2 - timeElastic_fork_7_out4 >= -0
  timeElastic_cst_5_in1 - timeElastic_forkC_10_out1 >= -0
  timeElastic_cst_6_in1 - timeElastic_forkC_10_out3 >= -0
  timeElastic_branchC_5_in1 - timeElastic_forkC_10_out2 >= -0
  timeElastic_phi_16_in1 - timeElastic_fork_13_out1 >= -0
  timeElastic_phiC_2_in1 - timeElastic_fork_13_out2 >= -0
  timeElastic_phiC_5_in1 - timeElastic_fork_13_out3 >= -0
  timeElastic_branchC_7_in1 - timeElastic_forkC_14_out2 >= -64
  timeElastic_load_22_in2 - timeElastic_fork_16_out1 >= -0
  timeElastic_store_1_in2 - timeElastic_fork_16_out2 >= -0
  64 ret_0_end_0210_flop - timeElastic_ret_0_out1 + timeElastic_end_0_in3 >= 0
  -timeElastic_cst_0_in1 + timeElastic_cst_0_out1 >= 1
  -timeElastic_cst_1_in1 + timeElastic_cst_1_out1 >= 1
  -timeElastic_cst_7_in1 + timeElastic_cst_7_out1 >= 1
  -timeElastic_forkC_8_in1 + timeElastic_forkC_8_out1 >= 1
  -timeElastic_forkC_8_in1 + timeElastic_forkC_8_out2 >= 1
  -timeElastic_forkC_8_in1 + timeElastic_forkC_8_out3 >= 1
  -timeElastic_forkC_8_in1 + timeElastic_forkC_8_out4 >= 1
  -timeElastic_forkC_8_in1 + timeElastic_forkC_8_out5 >= 1
  -timeElastic_forkC_8_in1 + timeElastic_forkC_8_out6 >= 1
  -timeElastic_fork_12_in1 + timeElastic_fork_12_out1 >= 1
  -timeElastic_fork_12_in1 + timeElastic_fork_12_out2 >= 1
  -timeElastic_phi_1_in1 + timeElastic_phi_1_out1 >= 1
  -timeElastic_phi_1_in2 + timeElastic_phi_1_out1 >= 1
  -timeElastic_phi_1_in3 + timeElastic_phi_1_out1 >= 1
  -timeElastic_phi_2_in1 + timeElastic_phi_2_out1 >= 1
  -timeElastic_phi_2_in2 + timeElastic_phi_2_out1 >= 1
  -timeElastic_phi_2_in3 + timeElastic_phi_2_out1 >= 1
  -timeElastic_load_5_in1 + timeElastic_load_5_out1 >= 1
  -timeElastic_load_5_in2 + timeElastic_load_5_out1 >= 1
  -timeElastic_load_5_in1 + timeElastic_load_5_out2 >= 1
  -timeElastic_load_5_in2 + timeElastic_load_5_out2 >= 1
  -timeElastic_load_8_in1 + timeElastic_load_8_out1 >= 1
  -timeElastic_load_8_in2 + timeElastic_load_8_out1 >= 1
  -timeElastic_load_8_in1 + timeElastic_load_8_out2 >= 1
  -timeElastic_load_8_in2 + timeElastic_load_8_out2 >= 1
  -timeElastic_add_9_in1 + timeElastic_add_9_out1 >= 1
  -timeElastic_add_9_in2 + timeElastic_add_9_out1 >= 1
  -timeElastic_store_0_in1 + timeElastic_store_0_out1 >= 1
  -timeElastic_store_0_in2 + timeElastic_store_0_out1 >= 1
  -timeElastic_store_0_in1 + timeElastic_store_0_out2 >= 1
  -timeElastic_store_0_in2 + timeElastic_store_0_out2 >= 1
  -timeElastic_cst_2_in1 + timeElastic_cst_2_out1 >= 1
  -timeElastic_add_12_in1 + timeElastic_add_12_out1 >= 1
  -timeElastic_add_12_in2 + timeElastic_add_12_out1 >= 1
  -timeElastic_cst_3_in1 + timeElastic_cst_3_out1 >= 1
  -timeElastic_icmp_13_in1 + timeElastic_icmp_13_out1 >= 1
  -timeElastic_icmp_13_in2 + timeElastic_icmp_13_out1 >= 1
  -timeElastic_forkC_0_in1 + timeElastic_forkC_0_out1 >= 1
  -timeElastic_forkC_0_in1 + timeElastic_forkC_0_out2 >= 1
  -timeElastic_buffer_bx_op_0_in1 + timeElastic_buffer_bx_op_0_out1 >= 1
  -timeElastic_phiC_0_in1 + timeElastic_phiC_0_out1 >= 1
  -timeElastic_phiC_0_in2 + timeElastic_phiC_0_out1 >= 1
  -timeElastic_phiC_0_in3 + timeElastic_phiC_0_out1 >= 1
  -timeElastic_branch_0_in1 + timeElastic_branch_0_out1 >= 1
  -timeElastic_branch_0_in2 + timeElastic_branch_0_out1 >= 1
  -timeElastic_branch_0_in1 + timeElastic_branch_0_out2 >= 1
  -timeElastic_branch_0_in2 + timeElastic_branch_0_out2 >= 1
  -timeElastic_phi_n6_in1 + timeElastic_phi_n6_out1 >= 1
  -timeElastic_phi_n6_in2 + timeElastic_phi_n6_out1 >= 1
  -timeElastic_branch_1_in1 + timeElastic_branch_1_out1 >= 1
  -timeElastic_branch_1_in2 + timeElastic_branch_1_out1 >= 1
  -timeElastic_branch_1_in1 + timeElastic_branch_1_out2 >= 1
  -timeElastic_branch_1_in2 + timeElastic_branch_1_out2 >= 1
  -timeElastic_branchC_4_in1 + timeElastic_branchC_4_out1 >= 1
  -timeElastic_branchC_4_in2 + timeElastic_branchC_4_out1 >= 1
  -timeElastic_branchC_4_in1 + timeElastic_branchC_4_out2 >= 1
  -timeElastic_branchC_4_in2 + timeElastic_branchC_4_out2 >= 1
  -timeElastic_branchC_6_in1 + timeElastic_branchC_6_out1 >= 1
  -timeElastic_branchC_6_in2 + timeElastic_branchC_6_out1 >= 1
  -timeElastic_branchC_6_in1 + timeElastic_branchC_6_out2 >= 1
  -timeElastic_branchC_6_in2 + timeElastic_branchC_6_out2 >= 1
  -timeElastic_fork_2_in1 + timeElastic_fork_2_out1 >= 1
  -timeElastic_fork_2_in1 + timeElastic_fork_2_out2 >= 1
  -timeElastic_fork_2_in1 + timeElastic_fork_2_out3 >= 1
  -timeElastic_fork_3_in1 + timeElastic_fork_3_out1 >= 1
  -timeElastic_fork_3_in1 + timeElastic_fork_3_out2 >= 1
  -timeElastic_fork_4_in1 + timeElastic_fork_4_out1 >= 1
  -timeElastic_fork_4_in1 + timeElastic_fork_4_out2 >= 1
  -timeElastic_fork_4_in1 + timeElastic_fork_4_out3 >= 1
  -timeElastic_fork_4_in1 + timeElastic_fork_4_out4 >= 1
  -timeElastic_fork_4_in1 + timeElastic_fork_4_out5 >= 1
  -timeElastic_forkC_9_in1 + timeElastic_forkC_9_out1 >= 1
  -timeElastic_forkC_9_in1 + timeElastic_forkC_9_out2 >= 1
  -timeElastic_forkC_9_in1 + timeElastic_forkC_9_out3 >= 1
  -timeElastic_forkC_9_in1 + timeElastic_forkC_9_out4 >= 1
  -timeElastic_fork_11_in1 + timeElastic_fork_11_out1 >= 1
  -timeElastic_fork_11_in1 + timeElastic_fork_11_out2 >= 1
  -timeElastic_fork_11_in1 + timeElastic_fork_11_out3 >= 1
  -timeElastic_fork_15_in1 + timeElastic_fork_15_out1 >= 1
  -timeElastic_fork_15_in1 + timeElastic_fork_15_out2 >= 1
  -timeElastic_cst_4_in1 + timeElastic_cst_4_out1 >= 1
  -timeElastic_phi_16_in1 + timeElastic_phi_16_out1 >= 1
  -timeElastic_phi_16_in2 + timeElastic_phi_16_out1 >= 1
  -timeElastic_phi_16_in3 + timeElastic_phi_16_out1 >= 1
  -timeElastic_load_19_in1 + timeElastic_load_19_out1 >= 1
  -timeElastic_load_19_in2 + timeElastic_load_19_out1 >= 1
  -timeElastic_load_19_in1 + timeElastic_load_19_out2 >= 1
  -timeElastic_load_19_in2 + timeElastic_load_19_out2 >= 1
  -timeElastic_load_22_in1 + timeElastic_load_22_out1 >= 1
  -timeElastic_load_22_in2 + timeElastic_load_22_out1 >= 1
  -timeElastic_load_22_in1 + timeElastic_load_22_out2 >= 1
  -timeElastic_load_22_in2 + timeElastic_load_22_out2 >= 1
  -timeElastic_add_23_in1 + timeElastic_add_23_out1 >= 1
  -timeElastic_add_23_in2 + timeElastic_add_23_out1 >= 1
  -timeElastic_store_1_in1 + timeElastic_store_1_out1 >= 1
  -timeElastic_store_1_in2 + timeElastic_store_1_out1 >= 1
  -timeElastic_store_1_in1 + timeElastic_store_1_out2 >= 1
  -timeElastic_store_1_in2 + timeElastic_store_1_out2 >= 1
  -timeElastic_cst_5_in1 + timeElastic_cst_5_out1 >= 1
  -timeElastic_add_26_in1 + timeElastic_add_26_out1 >= 1
  -timeElastic_add_26_in2 + timeElastic_add_26_out1 >= 1
  -timeElastic_cst_6_in1 + timeElastic_cst_6_out1 >= 1
  -timeElastic_icmp_27_in1 + timeElastic_icmp_27_out1 >= 1
  -timeElastic_icmp_27_in2 + timeElastic_icmp_27_out1 >= 1
  -timeElastic_phiC_2_in1 + timeElastic_phiC_2_out1 >= 1
  -timeElastic_phiC_2_in2 + timeElastic_phiC_2_out1 >= 1
  -timeElastic_phiC_2_in3 + timeElastic_phiC_2_out1 >= 1
  -timeElastic_phiC_5_in1 + timeElastic_phiC_5_out1 >= 1
  -timeElastic_phiC_5_in2 + timeElastic_phiC_5_out1 >= 1
  -timeElastic_phiC_5_in3 + timeElastic_phiC_5_out1 >= 1
  -timeElastic_branch_2_in1 + timeElastic_branch_2_out1 >= 1
  -timeElastic_branch_2_in2 + timeElastic_branch_2_out1 >= 1
  -timeElastic_branch_2_in1 + timeElastic_branch_2_out2 >= 1
  -timeElastic_branch_2_in2 + timeElastic_branch_2_out2 >= 1
  -timeElastic_phi_n7_in1 + timeElastic_phi_n7_out1 >= 1
  -timeElastic_phi_n7_in2 + timeElastic_phi_n7_out1 >= 1
  -timeElastic_branchC_5_in1 + timeElastic_branchC_5_out1 >= 1
  -timeElastic_branchC_5_in2 + timeElastic_branchC_5_out1 >= 1
  -timeElastic_branchC_5_in1 + timeElastic_branchC_5_out2 >= 1
  -timeElastic_branchC_5_in2 + timeElastic_branchC_5_out2 >= 1
  -timeElastic_branchC_7_in1 + timeElastic_branchC_7_out1 >= 1
  -timeElastic_branchC_7_in2 + timeElastic_branchC_7_out1 >= 1
  -timeElastic_branchC_7_in1 + timeElastic_branchC_7_out2 >= 1
  -timeElastic_branchC_7_in2 + timeElastic_branchC_7_out2 >= 1
  -timeElastic_fork_5_in1 + timeElastic_fork_5_out1 >= 1
  -timeElastic_fork_5_in1 + timeElastic_fork_5_out2 >= 1
  -timeElastic_fork_5_in1 + timeElastic_fork_5_out3 >= 1
  -timeElastic_fork_6_in1 + timeElastic_fork_6_out1 >= 1
  -timeElastic_fork_6_in1 + timeElastic_fork_6_out2 >= 1
  -timeElastic_fork_7_in1 + timeElastic_fork_7_out1 >= 1
  -timeElastic_fork_7_in1 + timeElastic_fork_7_out2 >= 1
  -timeElastic_fork_7_in1 + timeElastic_fork_7_out3 >= 1
  -timeElastic_fork_7_in1 + timeElastic_fork_7_out4 >= 1
  -timeElastic_forkC_10_in1 + timeElastic_forkC_10_out1 >= 1
  -timeElastic_forkC_10_in1 + timeElastic_forkC_10_out2 >= 1
  -timeElastic_forkC_10_in1 + timeElastic_forkC_10_out3 >= 1
  -timeElastic_fork_13_in1 + timeElastic_fork_13_out1 >= 1
  -timeElastic_fork_13_in1 + timeElastic_fork_13_out2 >= 1
  -timeElastic_fork_13_in1 + timeElastic_fork_13_out3 >= 1
  -timeElastic_forkC_14_in1 + timeElastic_forkC_14_out1 >= 1
  -timeElastic_forkC_14_in1 + timeElastic_forkC_14_out2 >= 1
  -timeElastic_fork_16_in1 + timeElastic_fork_16_out1 >= 1
  -timeElastic_fork_16_in1 + timeElastic_fork_16_out2 >= 1
  -timeElastic_ret_0_in1 + timeElastic_ret_0_out1 >= 1
  -timeElastic_LSQ_hist_in1 + timeElastic_LSQ_hist_out1 >= 1
  -timeElastic_LSQ_hist_in2 + timeElastic_LSQ_hist_out1 >= 1
  -timeElastic_LSQ_hist_in3 + timeElastic_LSQ_hist_out1 >= 1
  -timeElastic_LSQ_hist_in4 + timeElastic_LSQ_hist_out1 >= 1
  -timeElastic_LSQ_hist_in5 + timeElastic_LSQ_hist_out1 >= 1
  -timeElastic_LSQ_hist_in6 + timeElastic_LSQ_hist_out1 >= 1
  -timeElastic_LSQ_hist_in7 + timeElastic_LSQ_hist_out1 >= 1
  -timeElastic_LSQ_hist_in8 + timeElastic_LSQ_hist_out1 >= 1
  -timeElastic_LSQ_hist_in1 + timeElastic_LSQ_hist_out2 >= 1
  -timeElastic_LSQ_hist_in2 + timeElastic_LSQ_hist_out2 >= 1
  -timeElastic_LSQ_hist_in3 + timeElastic_LSQ_hist_out2 >= 1
  -timeElastic_LSQ_hist_in4 + timeElastic_LSQ_hist_out2 >= 1
  -timeElastic_LSQ_hist_in5 + timeElastic_LSQ_hist_out2 >= 1
  -timeElastic_LSQ_hist_in6 + timeElastic_LSQ_hist_out2 >= 1
  -timeElastic_LSQ_hist_in7 + timeElastic_LSQ_hist_out2 >= 1
  -timeElastic_LSQ_hist_in8 + timeElastic_LSQ_hist_out2 >= 1
  -timeElastic_LSQ_hist_in1 + timeElastic_LSQ_hist_out3 >= 1
  -timeElastic_LSQ_hist_in2 + timeElastic_LSQ_hist_out3 >= 1
  -timeElastic_LSQ_hist_in3 + timeElastic_LSQ_hist_out3 >= 1
  -timeElastic_LSQ_hist_in4 + timeElastic_LSQ_hist_out3 >= 1
  -timeElastic_LSQ_hist_in5 + timeElastic_LSQ_hist_out3 >= 1
  -timeElastic_LSQ_hist_in6 + timeElastic_LSQ_hist_out3 >= 1
  -timeElastic_LSQ_hist_in7 + timeElastic_LSQ_hist_out3 >= 1
  -timeElastic_LSQ_hist_in8 + timeElastic_LSQ_hist_out3 >= 1
  -timeElastic_MC_feature_in1 + timeElastic_MC_feature_out1 >= 1
  -timeElastic_MC_feature_in2 + timeElastic_MC_feature_out1 >= 1
  -timeElastic_MC_feature_in1 + timeElastic_MC_feature_out2 >= 1
  -timeElastic_MC_feature_in2 + timeElastic_MC_feature_out2 >= 1
  -timeElastic_MC_feature_in1 + timeElastic_MC_feature_out3 >= 1
  -timeElastic_MC_feature_in2 + timeElastic_MC_feature_out3 >= 1
Binary
  cst_0_phi_120_flop cst_1_phi_224_flop start_0_forkC_88_flop cst_7_fork_1215_flop forkC_8_cst_00_flop forkC_8_cst_12_flop forkC_8_cst_76_flop forkC_8_phiC_058_flop forkC_8_cst_4104_flop forkC_8_phiC_2137_flop fork_12_phi_n664_flop fork_12_phi_n7147_flop load_5_MC_feature197_flop load_8_LSQ_hist188_flop store_0_LSQ_hist189_flop store_0_LSQ_hist190_flop forkC_0_LSQ_hist186_flop branch_0_sink_1202_flop branch_1_ret_0184_flop branchC_4_sink_3204_flop branchC_6_phiC_5141_flop branchC_6_sink_5206_flop cst_4_phi_16108_flop load_19_MC_feature198_flop load_22_LSQ_hist191_flop store_1_LSQ_hist192_flop store_1_LSQ_hist193_flop branch_2_sink_2203_flop branchC_5_sink_4205_flop branchC_7_sink_6207_flop forkC_14_LSQ_hist187_flop ret_0_end_0210_flop LSQ_hist_load_830_flop LSQ_hist_load_22114_flop LSQ_hist_end_0208_flop MC_feature_load_526_flop MC_feature_load_19110_flop MC_feature_end_0209_flop
End
